interdiction/MCDM/NO_CORR/GEN_FROM_60/16_ITEMS_1000_GEN/K5016W11.KNP.mps
NAME          BLANK   
ROWS
 N  OBJROW
 L  R0000000
COLUMNS
    C0000000  OBJROW     -415.         R0000000  200.        
    C0000001  OBJROW     -543.         R0000000  230.        
    C0000002  OBJROW     -796.         R0000000  957.        
    C0000003  OBJROW     -466.         R0000000  101.        
    C0000004  OBJROW     -682.         R0000000  851.        
    C0000005  OBJROW     -317.         R0000000  485.        
    C0000006  OBJROW     -164.         R0000000  836.        
    C0000007  OBJROW     -889.         R0000000  238.        
    C0000008  OBJROW     -562.         R0000000  126.        
    C0000009  OBJROW     -2.           R0000000  656.        
    C0000010  OBJROW     -554.         R0000000  994.        
    C0000011  OBJROW     -934.         R0000000  27.         
    C0000012  OBJROW     -334.         R0000000  688.        
    C0000013  OBJROW     -668.         R0000000  232.        
    C0000014  OBJROW     -647.         R0000000  675.        
    C0000015  OBJROW     -659.         R0000000  561.        
RHS
    RHS       R0000000  15060.      
BOUNDS
 BV BOUND     C0000000  1.          
 BV BOUND     C0000001  1.          
 BV BOUND     C0000002  1.          
 BV BOUND     C0000003  1.          
 BV BOUND     C0000004  1.          
 BV BOUND     C0000005  1.          
 BV BOUND     C0000006  1.          
 BV BOUND     C0000007  1.          
 BV BOUND     C0000008  1.          
 BV BOUND     C0000009  1.          
 BV BOUND     C0000010  1.          
 BV BOUND     C0000011  1.          
 BV BOUND     C0000012  1.          
 BV BOUND     C0000013  1.          
 BV BOUND     C0000014  1.          
 BV BOUND     C0000015  1.          
ENDATA
