data/MCDM/NO_CORR/GEN_FROM_60/16_ITEMS_1000_GEN/K5016W11.KNP.txt
N 16
M 17
LC 16
LC 17
LC 18
LC 19
LC 20
LC 21
LC 22
LC 23
LC 24
LC 25
LC 26
LC 27
LC 28
LC 29
LC 30
LC 31
LR 1
LR 2
LR 3
LR 4
LR 5
LR 6
LR 7
LR 8
LR 9
LR 10
LR 11
LR 12
LR 13
LR 14
LR 15
LR 16
LR 17
LO -415
LO -543
LO -796
LO -466
LO -682
LO -317
LO -164
LO -889
LO -562
LO -2
LO -554
LO -934
LO -334
LO -668
LO -647
LO -659
OS 1
IC 628
IC 709
IC 477
IC 869
IC 84
IC 201
IC 905
IC 767
IC 64
IC 738
IC 98
IC 626
IC 384
IC 480
IC 249
IC 856
IB 4068
